TW_4_3_0.5_0_0.5
Wed Nov 16 18:13:07 CET 2022
p tw 9 17
1 2
2 3
4 5
5 6
1 4
2 5
3 6
1 7
1 9
3 7
3 9
4 7
4 8
6 7
6 8
7 9
8 9
p tw 11 20
1 2
2 10
10 3
4 5
5 11
11 6
10 11
1 4
2 5
3 6
1 7
1 9
3 7
3 9
4 7
4 8
6 7
6 8
7 9
8 9
